//This is the obj fxn for diet problem:
max: 7.0*x0 + 12.0*x1 + 7.0*x2 + 7.0*x3 + 5.0*x4 + 6.5*x5 + 9.99*x6 + 5.51*x7 + 11.0*x8 + 11.0*x9 + 11.0*x10 + 6.79*x11 + 6.79*x12 + 6.5*x13 + 2.5*x14 + 2.0*x15 + 5.0*x16 + 7.0*x17 + 5.0*x18 + 4.0*x19 + 3.0*x20 + 12.0*x21 + 9.0*x22 + 9.0*x23 + 9.0*x24 + 10.0*x25 + 12.0*x26 + 11.0*x27 + 11.0*x28 + 12.0*x29 + 15.0*x30 + 8.0*x31 + 19.5*x32 + 22.0*x33 + 9.0*x34 + 14.0*x35 + 6.99*x36 + 6.99*x37 + 6.99*x38 + 6.99*x39 + 6.0*x40 + 6.0*x41 + 6.0*x42 + 5.5*x43 + 3.0*x44 + 12.0*x45 + 9.0*x46 + 9.0*x47 + 9.0*x48 + 10.0*x49 + 12.0*x50 + 11.0*x51 + 11.0*x52 + 12.0*x53 + 15.0*x54 + 8.0*x55 + 19.5*x56 + 22.0*x57 + 9.0*x58 + 14.0*x59 + 28.0*x60 + 14.0*x61 + 5.99*x62 + 5.99*x63 + 2.74*x64 + 6.19*x65 + 7.69*x66 + 5.69*x67 + 6.69*x68 + 5.69*x69 + 4.49*x70 + 5.59*x71 + 6.69*x72 + 3.0*x73 + 3.5*x74 + 3.75*x75 + 4.0*x76 + 3.45*x77 + 4.45*x78 + 2.5*x79 + 3.95*x80 + 4.75*x81 + 4.65*x82 + 5.12*x83 + 4.45*x84 + 4.75*x85 + 3.95*x86 + 4.75*x87 + 2.45*x88 + 3.85*x89 + 5.05*x90 + 4.45*x91 + 3.45*x92 + 3.95*x93 + 3.75*x94 + 3.95*x95 + 4.15*x96 + 4.95*x97 + 5.15*x98 + 5.95*x99 + 6.75*x100 + 6.75*x101 + 6.75*x102 + 8.45*x103 + 8.45*x104 + 6.25*x105 + 5.65*x106 + 3.75*x107 + 3.75*x108 + 2.45*x109 + 2.95*x110 + 3.75*x111 + 2.0*x112 + 2.65*x113;
//These are the constraints:
7.0*x0 + 12.0*x1 + 7.0*x2 + 7.0*x3 + 5.0*x4 + 6.5*x5 + 9.99*x6 + 5.51*x7 + 11.0*x8 + 11.0*x9 + 11.0*x10 + 6.79*x11 + 6.79*x12 + 6.5*x13 + 2.5*x14 + 2.0*x15 + 5.0*x16 + 7.0*x17 + 5.0*x18 + 4.0*x19 + 3.0*x20 + 12.0*x21 + 9.0*x22 + 9.0*x23 + 9.0*x24 + 10.0*x25 + 12.0*x26 + 11.0*x27 + 11.0*x28 + 12.0*x29 + 15.0*x30 + 8.0*x31 + 19.5*x32 + 22.0*x33 + 9.0*x34 + 14.0*x35 + 6.99*x36 + 6.99*x37 + 6.99*x38 + 6.99*x39 + 6.0*x40 + 6.0*x41 + 6.0*x42 + 5.5*x43 + 3.0*x44 + 12.0*x45 + 9.0*x46 + 9.0*x47 + 9.0*x48 + 10.0*x49 + 12.0*x50 + 11.0*x51 + 11.0*x52 + 12.0*x53 + 15.0*x54 + 8.0*x55 + 19.5*x56 + 22.0*x57 + 9.0*x58 + 14.0*x59 + 28.0*x60 + 14.0*x61 + 5.99*x62 + 5.99*x63 + 2.74*x64 + 6.19*x65 + 7.69*x66 + 5.69*x67 + 6.69*x68 + 5.69*x69 + 4.49*x70 + 5.59*x71 + 6.69*x72 + 3.0*x73 + 3.5*x74 + 3.75*x75 + 4.0*x76 + 3.45*x77 + 4.45*x78 + 2.5*x79 + 3.95*x80 + 4.75*x81 + 4.65*x82 + 5.12*x83 + 4.45*x84 + 4.75*x85 + 3.95*x86 + 4.75*x87 + 2.45*x88 + 3.85*x89 + 5.05*x90 + 4.45*x91 + 3.45*x92 + 3.95*x93 + 3.75*x94 + 3.95*x95 + 4.15*x96 + 4.95*x97 + 5.15*x98 + 5.95*x99 + 6.75*x100 + 6.75*x101 + 6.75*x102 + 8.45*x103 + 8.45*x104 + 6.25*x105 + 5.65*x106 + 3.75*x107 + 3.75*x108 + 2.45*x109 + 2.95*x110 + 3.75*x111 + 2.0*x112 + 2.65*x113<= 71.42857142857143;
 + 470.0*x77 + 470.0*x78 + 470.0*x79 + 470.0*x80 + 470.0*x81 + 470.0*x82 + 470.0*x83 + 470.0*x84 + 470.0*x85 + 470.0*x86 + 470.0*x87 + 470.0*x88 + 470.0*x89 + 470.0*x90 + 470.0*x91 + 470.0*x92 + 470.0*x93 + 148.0*x94 + 116.0*x95 + 159.0*x96 + 132.0*x97 + 148.0*x98 + 143.0*x99 + 176.0*x100 + 201.0*x101 + 423.0*x103 + 385.0*x104 + 250.0*x105 + 210.0*x106 + 162.0*x107 + 150.0*x109 + 80.0*x110 + 102.0*x111 + 100.0*x112 + 110.0*x113<= 4019.9999999999995;
540.0*x0 + 189.0*x1 + 351.0*x2 + 360.0*x3 + 219.0*x4 + 190.0*x5 + 420.0*x6 + 553.0*x7 + 965.0*x8 + 808.0*x9 + 800.0*x10 + 616.0*x11 + 418.0*x12 + 300.0*x13 + 103.0*x14 + 144.0*x15 + 200.0*x16 + 502.0*x17 + 170.0*x18 + 365.0*x19 + 24.0*x20 + 586.0*x21 + 160.0*x22 + 481.0*x23 + 134.0*x24 + 305.0*x25 + 750.0*x26 + 377.0*x27 + 88.0*x28 + 688.0*x29 + 470.0*x30 + 52.0*x31 + 1190.0*x32 + 920.0*x33 + 414.0*x34 + 552.0*x35 + 630.0*x36 + 640.0*x37 + 630.0*x38 + 400.0*x39 + 570.0*x40 + 430.0*x41 + 566.0*x42 + 410.0*x43 + 24.0*x44 + 586.0*x45 + 160.0*x46 + 481.0*x47 + 134.0*x48 + 305.0*x49 + 750.0*x50 + 377.0*x51 + 88.0*x52 + 688.0*x53 + 470.0*x54 + 52.0*x55 + 1462.0*x56 + 920.0*x57 + 414.0*x58 + 552.0*x59 + 614.0*x60 + 318.0*x61 + 400.0*x62 + 570.0*x63 + 591.0*x64 + 493.0*x65 + 835.0*x66 + 871.0*x67 + 891.0*x68 + 436.0*x69 + 360.0*x70 + 540.0*x71 + 720.0*x72 + 350.0*x73 + 420.0*x74 + 440.0*x75 + 480.0*x76 + 15.0*x77 + 120.0*x78 + 80.0*x79 + 5.0*x80 + 5.0*x81 + 250.0*x82 + 220.0*x83 + 360.0*x84 + 420.0*x85 + 230.0*x86 + 410.0*x87 + 45.0*x88 + 90.0*x89 + 140.0*x90 + 90.0*x91 + 400.0*x92 + 440.0*x93 + 480.0*x94 + 370.0*x95 + 280.0*x96 + 450.0*x97 + 520.0*x98 + 540.0*x99 + 490.0*x100 + 620.0*x101 + 500.0*x102 + 690.0*x103 + 570.0*x104 + 470.0*x105 + 520.0*x106 + 330.0*x107 + 240.0*x108 + 120.0*x109 + 340.0*x110 + 320.0*x111 + 290.0*x112 + 360.0*x113<= 2000;
40.0*x0 + 11.0*x1 + 25.6*x2 + 17.0*x3 + 11.0*x4 + 2.8*x5 + 14.0*x6 + 15.2*x7 + 27.6*x8 + 13.4*x9 + 14.0*x10 + 29.0*x11 + 11.0*x12 + 20.0*x13 + 2.9*x14 + 2.2*x15 + 14.0*x16 + 27.0*x17 + 1.1*x18 + 17.0*x19 + 0.4*x20 + 43.0*x21 + 3.7*x22 + 40.0*x23 + 10.0*x24 + 13.0*x25 + 31.0*x26 + 21.0*x27 + 9.3*x28 + 26.0*x29 + 28.0*x30 + 2.6*x31 + 72.0*x32 + 64.0*x33 + 24.0*x34 + 32.0*x35 + 32.0*x36 + 28.0*x37 + 34.0*x38 + 16.0*x39 + 27.0*x40 + 29.0*x41 + 34.0*x42 + 14.0*x43 + 0.4*x44 + 43.0*x45 + 3.7*x46 + 40.0*x47 + 10.0*x48 + 13.0*x49 + 31.0*x50 + 21.0*x51 + 9.3*x52 + 26.0*x53 + 28.0*x54 + 2.6*x55 + 51.0*x56 + 64.0*x57 + 24.0*x58 + 32.0*x59 + 41.0*x60 + 12.0*x61 + 4.0*x62 + 24.0*x63 + 25.8*x64 + 15.3*x65 + 29.5*x66 + 43.6*x67 + 44.3*x68 + 9.1*x69 + 25.0*x70 + 37.5*x71 + 50.0*x72 + 12.0*x73 + 19.0*x74 + 19.0*x75 + 24.0*x76 + 4.0*x78 + 7.0*x82 + 11.0*x83 + 15.0*x84 + 15.0*x85 + 3.0*x86 + 15.0*x87 + 2.5*x90 + 16.0*x92 + 19.0*x93 + 29.0*x94 + 18.0*x95 + 8.0*x96 + 22.0*x97 + 28.0*x98 + 29.0*x99 + 24.0*x100 + 26.0*x101 + 18.0*x102 + 31.0*x103 + 23.0*x104 + 25.0*x105 + 26.0*x106 + 12.0*x107 + 2.5*x108 + 20.0*x110 + 17.0*x111 + 4.0*x112 + 15.0*x113<= 65;
15.0*x0 + 16.0*x1 + 8.1*x2 + 8.0*x3 + 5.2*x4 + 0.8*x5 + 5.0*x6 + 2.1*x7 + 8.4*x8 + 3.0*x9 + 3.6*x10 + 6.2*x11 + 3.5*x12 + 2.4*x13 + 1.1*x14 + 0.5*x15 + 6.0*x16 + 4.8*x17 + 2.7*x19 + 0.1*x20 + 6.8*x21 + 0.6*x22 + 8.2*x23 + 3.7*x24 + 6.4*x25 + 11.0*x26 + 5.7*x27 + 3.2*x28 + 3.0*x29 + 5.4*x30 + 1.3*x31 + 24.0*x32 + 28.8*x33 + 9.6*x34 + 12.8*x35 + 14.0*x36 + 9.8*x37 + 7.7*x38 + 2.7*x39 + 14.0*x40 + 17.0*x41 + 11.0*x42 + 3.7*x43 + 0.1*x44 + 6.8*x45 + 0.6*x46 + 8.2*x47 + 3.7*x48 + 6.4*x49 + 11.0*x50 + 5.7*x51 + 3.2*x52 + 3.0*x53 + 5.4*x54 + 1.3*x55 + 17.5*x56 + 28.8*x57 + 9.6*x58 + 12.8*x59 + 16.0*x60 + 3.5*x61 + x62 + 8.0*x63 + 4.5*x64 + 6.8*x65 + 13.6*x66 + 16.4*x67 + 9.4*x68 + x69 + 15.0*x70 + 22.5*x71 + 30.0*x72 + 9.0*x73 + 13.0*x74 + 10.0*x75 + 12.0*x76 + 2.0*x78 + 4.5*x82 + 7.0*x83 + 9.0*x84 + 9.0*x85 + 2.0*x86 + 9.0*x87 + 2.5*x90 + 10.0*x92 + 12.0*x93 + 10.0*x94 + 7.0*x95 + 3.0*x96 + 9.0*x97 + 13.0*x98 + 16.0*x99 + 10.0*x100 + 8.0*x101 + 6.0*x102 + 10.0*x103 + 10.0*x104 + 7.0*x105 + 7.0*x106 + 6.0*x107 + 12.0*x110 + 9.0*x111 + x112 + 3.0*x113<= 20;
497.0*x0 + 402.0*x2 + 60.0*x3 + 129.0*x4 + 6.6*x5 + 245.0*x6 + 164.0*x8 + 157.0*x9 + 122.0*x10 + 126.0*x11 + 87.0*x12 + 7.5*x14 + 26.0*x16 + 159.0*x21 + 36.0*x23 + 63.0*x24 + 53.0*x25 + 188.0*x26 + 126.0*x27 + 14.0*x28 + 148.0*x29 + 143.0*x30 + 5.1*x31 + 203.0*x32 + 264.0*x33 + 156.0*x34 + 208.0*x35 + 107.0*x36 + 86.0*x37 + 102.0*x38 + 86.0*x40 + 88.0*x41 + 101.0*x42 + 50.0*x43 + 159.0*x45 + 36.0*x47 + 63.0*x48 + 53.0*x49 + 188.0*x50 + 126.0*x51 + 14.0*x52 + 148.0*x53 + 143.0*x54 + 5.1*x55 + 608.0*x56 + 264.0*x57 + 156.0*x58 + 208.0*x59 + 214.0*x60 + 11.0*x61 + 147.0*x65 + 294.0*x66 + 120.0*x67 + 85.0*x68 + 115.0*x70 + 172.5*x71 + 230.0*x72 + 30.0*x73 + 50.0*x74 + 55.0*x75 + 45.0*x76 + 15.0*x78 + 25.0*x82 + 35.0*x83 + 50.0*x84 + 45.0*x85 + 10.0*x86 + 50.0*x87 + 55.0*x92 + 55.0*x93 + 165.0*x94 + 170.0*x95 + 20.0*x96 + 85.0*x97 + 220.0*x98 + 75.0*x99 + 80.0*x100 + 110.0*x101 + 65.0*x102 + 65.0*x103 + 90.0*x104 + 385.0*x105 + 25.0*x106 + 65.0*x107 + 5.0*x108 + 10.0*x109 + 50.0*x110 + 65.0*x111 + 5.0*x112 + 50.0*x113<= 300;
828.0*x0 + 439.0*x1 + 771.0*x2 + 750.0*x3 + 237.0*x4 + 317.0*x5 + 700.0*x6 + 357.0*x7 + 1025.0*x8 + 1040.0*x9 + 3766.0*x10 + 1178.0*x11 + 1658.0*x12 + 711.0*x13 + 258.0*x14 + 298.0*x15 + 355.0*x16 + 976.0*x17 + 910.0*x18 + 246.0*x19 + 39.0*x20 + 561.0*x21 + 605.0*x22 + 1152.0*x23 + 247.0*x24 + 822.0*x25 + 1330.0*x26 + 118.0*x27 + 345.0*x28 + 1403.0*x29 + 138.0*x30 + 750.0*x31 + 646.0*x32 + 196.0*x33 + 96.0*x34 + 128.0*x35 + 590.0*x36 + 1333.0*x37 + 1200.0*x38 + 718.0*x39 + 769.0*x40 + 1766.0*x41 + 1973.0*x42 + 1479.0*x43 + 39.0*x44 + 561.0*x45 + 605.0*x46 + 1152.0*x47 + 247.0*x48 + 822.0*x49 + 1330.0*x50 + 118.0*x51 + 345.0*x52 + 1403.0*x53 + 138.0*x54 + 750.0*x55 + 647.0*x56 + 196.0*x57 + 96.0*x58 + 128.0*x59 + 115.0*x60 + 244.0*x61 + 302.0*x62 + 616.0*x63 + 597.0*x64 + 938.0*x65 + 1328.0*x66 + 1913.0*x67 + 1643.0*x68 + 1133.0*x69 + 720.0*x70 + 1080.0*x71 + 1440.0*x72 + 710.0*x73 + 990.0*x74 + 1040.0*x75 + 830.0*x76 + 10.0*x77 + 100.0*x78 + 10.0*x79 + 15.0*x80 + 10.0*x81 + 150.0*x82 + 150.0*x83 + 150.0*x84 + 230.0*x85 + 230.0*x86 + 10.0*x88 + 15.0*x89 + 65.0*x90 + 15.0*x91 + 170.0*x92 + 260.0*x93 + 880.0*x94 + 780.0*x95 + 830.0*x96 + 1160.0*x97 + 940.0*x98 + 1060.0*x99 + 1250.0*x100 + 1460.0*x101 + 900.0*x102 + 1000.0*x103 + 1620.0*x104 + 540.0*x105 + 570.0*x106 + 90.0*x107 + 125.0*x108 + 55.0*x109 + 280.0*x110 + 490.0*x111 + 450.0*x112 + 270.0*x113<= 2400;
0.7*x0 + 20.0*x1 + 1.4*x2 + 38.0*x3 + 23.0*x4 + 32.0*x5 + 34.0*x6 + 12.3*x7 + 74.1*x8 + 66.8*x9 + 56.9*x10 + 46.0*x11 + 47.0*x12 + 15.0*x13 + 16.0*x14 + 26.0*x15 + 12.0*x16 + 57.0*x17 + 36.0*x18 + 48.0*x19 + 4.4*x20 + 26.0*x21 + 25.0*x22 + 23.0*x23 + 3.2*x24 + 32.0*x25 + 81.0*x26 + 4.4*x27 + 0.7*x28 + 71.0*x29 + 6.4*x31 + 74.0*x32 + 419.0*x36 + 523.0*x37 + 704.0*x38 + 696.0*x39 + 1327.0*x40 + 577.0*x41 + 888.0*x42 + 500.0*x43 + 4.4*x44 + 26.0*x45 + 25.0*x46 + 23.0*x47 + 3.2*x48 + 32.0*x49 + 81.0*x50 + 4.4*x51 + 0.7*x52 + 71.0*x53 + 6.4*x55 + 209.5*x56 + 578.0*x61 + 14.0*x62 + 11.0*x63 + 9.0*x64 + 56.4*x65 + 105.3*x66 + 46.7*x67 + 41.4*x68 + 13.5*x69 + 17.0*x70 + 25.5*x71 + 34.0*x72 + 18.0*x73 + 21.0*x74 + 23.0*x75 + 20.0*x76 + 2.0*x77 + 12.0*x78 + 20.0*x79 + 35.0*x82 + 18.0*x83 + 44.0*x84 + 57.0*x85 + 46.0*x86 + 63.0*x87 + 11.0*x88 + 23.0*x89 + 27.0*x90 + 21.0*x91 + 50.0*x92 + 55.0*x93 + 34.0*x94 + 33.0*x95 + 34.0*x96 + 35.0*x97 + 42.0*x98 + 47.0*x99 + 42.0*x100 + 65.0*x101 + 58.0*x102 + 77.0*x103 + 54.0*x104 + 40.0*x105 + 54.0*x106 + 42.0*x107 + 39.0*x108 + 12.0*x109 + 38.0*x110 + 28.0*x111 + 53.0*x112 + 52.0*x113<= 300;
42.0*x0 + 3.8*x1 + 24.6*x2 + 14.0*x3 + 7.3*x4 + 7.6*x5 + 39.0*x6 + 108.0*x10 + 46.0*x11 + 33.0*x12 + 19.0*x13 + 2.8*x14 + 4.5*x15 + 6.0*x16 + 7.0*x17 + 3.5*x18 + 4.0*x19 + 1.9*x20 + 25.0*x21 + 7.0*x22 + 10.0*x23 + 6.8*x24 + 16.0*x25 + 38.0*x26 + 40.0*x27 + 0.5*x28 + 43.0*x29 + 50.0*x30 + 2.6*x31 + 62.0*x32 + 84.0*x33 + 46.0*x34 + 61.3*x35 + 47.0*x36 + 65.0*x37 + 42.0*x38 + 53.0*x39 + 52.0*x40 + 23.0*x41 + 29.0*x42 + 48.0*x43 + 1.9*x44 + 25.0*x45 + 7.0*x46 + 10.0*x47 + 6.8*x48 + 16.0*x49 + 38.0*x50 + 40.0*x51 + 0.5*x52 + 43.0*x53 + 50.0*x54 + 2.6*x55 + 84.0*x57 + 46.0*x58 + 61.3*x59 + 58.0*x60 + 45.0*x61 + x66 + x77 + 8.0*x78 + 10.0*x82 + 12.0*x83 + 13.0*x84 + 4.0*x85 + 3.0*x86 + 6.0*x87 + x90 + 14.0*x92 + 15.0*x93 + 18.0*x94 + 18.0*x95 + 20.0*x96 + 26.0*x97 + 22.0*x98 + 21.0*x99 + 25.0*x100 + 31.0*x101 + 28.0*x102 + 30.0*x103 + 35.0*x104 + 23.0*x105 + 20.0*x106 + 14.0*x107 + 14.0*x108 + 15.0*x109 + 5.0*x110 + 14.0*x111 + 11.0*x112 + 5.0*x113<= 50;
14.0*x0 + 12.0*x1 + 14.7*x2 + 4.0*x3 + 8.4*x4 + 0.8*x5 + 10.0*x6 + 100.0*x7 + 61.0*x8 + 41.0*x9 + 59.0*x10 + 321.0*x11 + 13.8*x12 + 1.6*x13 + 0.7*x14 + 8.0*x16 + 0.5*x17 + 34.0*x18 + 9.2*x19 + 151.0*x20 + 68.0*x21 + 93.7*x22 + 396.0*x23 + 70.0*x24 + 11.0*x25 + 58.0*x26 + 2.5*x27 + 5.2*x28 + 51.3*x29 + 24.0*x30 + 129.4*x31 + 20.4*x32 + 1.6*x33 + 36.0*x36 + 29.0*x37 + 36.0*x38 + 16.0*x39 + 29.0*x40 + 21.0*x41 + 36.0*x42 + 22.0*x43 + 151.0*x44 + 68.0*x45 + 93.7*x46 + 396.0*x47 + 70.0*x48 + 11.0*x49 + 58.0*x50 + 2.5*x51 + 5.2*x52 + 51.3*x53 + 24.0*x54 + 129.4*x55 + 19.0*x56 + 1.6*x57 + 9.2*x61 + 33.0*x64 + 220.0*x65 + 434.0*x66 + 17.0*x67 + 62.0*x68 + 8.0*x69<= 20;
6.0*x0 + 3.8*x1 + 4.7*x2 + 15.0*x3 + 0.1*x4 + 0.6*x5 + 15.0*x6 + 6.0*x7 + 7.0*x8 + 7.0*x9 + 12.0*x10 + 9.5*x11 + 8.4*x12 + 39.0*x13 + 0.4*x14 + 3.6*x15 + 9.5*x16 + 2.3*x17 + 3.0*x18 + 1.6*x19 + 6.3*x20 + 7.2*x21 + 11.0*x22 + 19.0*x23 + 2.0*x24 + 7.9*x25 + 12.0*x26 + 1.8*x27 + 2.0*x28 + 14.0*x29 + 2.6*x30 + 1.8*x31 + 3.9*x32 + 3.2*x33 + 2.6*x34 + 3.5*x35 + 45.0*x36 + 34.0*x37 + 228.0*x38 + 192.0*x39 + 49.0*x40 + 193.0*x41 + 40.0*x42 + 68.0*x43 + 6.3*x44 + 7.2*x45 + 11.0*x46 + 19.0*x47 + 2.0*x48 + 7.9*x49 + 12.0*x50 + 1.8*x51 + 2.0*x52 + 14.0*x53 + 2.6*x54 + 1.8*x55 + 129.0*x56 + 3.2*x57 + 2.6*x58 + 3.5*x59 + 2.6*x60 + 4.9*x61 + 3.0*x64 + 7.0*x65 + 12.0*x66 + 2.0*x67 + 7.0*x68 + 2.0*x69<= 2500;
21.0*x0 + 8.0*x1 + 11.4*x2 + 15.0*x3 + 5.1*x4 + 4.0*x5 + 25.0*x6 + 712.0*x7 + 1312.0*x8 + 725.0*x9 + 1130.0*x10 + 28.0*x11 + 17.0*x12 + 21.0*x13 + 1.1*x14 + 7.8*x15 + 5.5*x16 + 5.5*x17 + 7.8*x18 + 5.2*x19 + 8.2*x20 + 22.0*x21 + 8.6*x22 + 18.0*x23 + 6.4*x24 + 11.0*x25 + 37.0*x26 + 11.0*x27 + 0.6*x28 + 10.0*x29 + 4.3*x30 + 3.3*x31 + 46.0*x32 + 44.0*x33 + 16.4*x34 + 21.9*x35 + 32.0*x36 + 21.0*x37 + 12.0*x38 + 8.1*x39 + 45.0*x40 + 45.0*x41 + 11.0*x42 + 12.0*x43 + 8.2*x44 + 22.0*x45 + 8.6*x46 + 18.0*x47 + 6.4*x48 + 11.0*x49 + 37.0*x50 + 11.0*x51 + 0.6*x52 + 10.0*x53 + 4.3*x54 + 3.3*x55 + 3210.0*x56 + 44.0*x57 + 16.4*x58 + 21.9*x59 + 21.0*x60 + 19.0*x61 + 1403.0*x64 + 811.0*x65 + 1518.0*x66 + 737.0*x67 + 1537.0*x68 + 96.0*x69<= 45;
498.0*x0 + 381.0*x1 + 312.0*x2 + 240.0*x3 + 97.0*x4 + 256.0*x5 + 158.0*x6 + 93.9*x7 + 98.2*x8 + 99.1*x9 + 106.7*x10 + 1220.0*x11 + 759.0*x12 + 327.0*x13 + 69.0*x14 + 59.0*x15 + 60.0*x16 + 200.0*x17 + 1342.0*x18 + 677.0*x19 + 295.0*x20 + 885.0*x21 + 261.0*x22 + 613.0*x23 + 287.0*x24 + 341.0*x25 + 472.0*x26 + 328.0*x27 + 37.0*x28 + 1457.0*x29 + 872.0*x30 + 230.0*x31 + 1789.0*x32 + 948.0*x33 + 572.0*x34 + 762.7*x35 + 18.0*x36 + 18.0*x37 + 27.0*x38 + 31.0*x39 + 13.0*x40 + 7.2*x41 + 54.0*x42 + 24.0*x43 + 295.0*x44 + 885.0*x45 + 261.0*x46 + 613.0*x47 + 287.0*x48 + 341.0*x49 + 472.0*x50 + 328.0*x51 + 37.0*x52 + 1457.0*x53 + 872.0*x54 + 230.0*x55 + 27.0*x56 + 948.0*x57 + 572.0*x58 + 762.7*x59 + 698.0*x60 + 38.0*x61 + 76.0*x62 + 76.0*x63 + 80.9*x64 + 31.3*x65 + 33.3*x66 + 72.5*x67 + 84.9*x68 + 76.5*x69 + 18.0*x70 + 27.0*x71 + 36.0*x72 + 45.0*x73 + 45.0*x74 + 44.0*x75 + 48.0*x76<= 2400;
 + 225.0*x77 + 150.0*x78 + 165.0*x79 + 205.0*x80 + 280.0*x81 + 150.0*x82 + 195.0*x83 + 175.0*x84 + 90.0*x85 + 95.0*x86 + 70.0*x87 + 25.0*x88 + 45.0*x89 + 45.0*x90 + 45.0*x91 + 25.0*x92<= 400;
x0 + x1 + x2 + x3 + x6 + x8 + x9 + x10 + x11 + x12 + x14 + x21 + x23 + x25 + x26 + x27 + x29 + x30 + x32 + x33 + x34 + x35 + x36 + x37 + x38 + x39 + x42 + x43 + x45 + x47 + x49 + x50 + x51 + x53 + x54 + x56 + x57 + x58 + x59 + x60 + x61 + x63 + x65 + x66 + x67 + x68 + x70 + x71 + x72 + x73 + x74 + x75 + x76 + x78 + x82 + x83 + x84 + x85 + x86 + x87 + x92 + x93 + x94 + x95 + x96 + x97 + x98 + x99 + x100 + x101 + x102 + x103 + x104 + x105 + x110 + x112<= 114;
x0 + x2 + x3 + x6 + x8 + x9 + x10 + x11 + x12 + x14 + x23 + x25 + x26 + x27 + x29 + x30 + x32 + x33 + x34 + x35 + x36 + x37 + x38 + x42 + x43 + x47 + x49 + x50 + x51 + x53 + x54 + x56 + x57 + x58 + x59 + x60 + x61 + x65 + x66 + x67 + x68 + x70 + x71 + x72 + x74 + x75 + x76 + x94 + x95 + x97 + x98 + x100 + x101 + x102 + x103 + x104 + x110 + x112<= 114;
x0 + x1 + x2 + x3 + x4 + x5 + x6 + x7 + x8 + x9 + x10 + x11 + x12 + x13 + x14 + x15 + x16 + x17 + x18 + x19 + x20 + x21 + x22 + x23 + x24 + x25 + x26 + x27 + x28 + x29 + x30 + x31 + x32 + x33 + x34 + x35 + x36 + x37 + x38 + x39 + x40 + x41 + x42 + x43 + x44 + x45 + x46 + x47 + x48 + x49 + x50 + x51 + x52 + x53 + x54 + x55 + x56 + x57 + x58 + x59 + x60 + x61 + x62 + x63 + x64 + x65 + x66 + x67 + x68 + x69 + x70 + x71 + x72 + x73 + x74 + x75 + x76<= 3;

x0>=0; x1>=0; x2>=0; x3>=0; x4>=0; x5>=0; x6>=0; x7>=0; x8>=0; x9>=0; x10>=0; x11>=0; x12>=0; x13>=0; x14>=0; x15>=0; x16>=0; x17>=0; x18>=0; x19>=0; x20>=0; x21>=0; x22>=0; x23>=0; x24>=0; x25>=0; x26>=0; x27>=0; x28>=0; x29>=0; x30>=0; x31>=0; x32>=0; x33>=0; x34>=0; x35>=0; x36>=0; x37>=0; x38>=0; x39>=0; x40>=0; x41>=0; x42>=0; x43>=0; x44>=0; x45>=0; x46>=0; x47>=0; x48>=0; x49>=0; x50>=0; x51>=0; x52>=0; x53>=0; x54>=0; x55>=0; x56>=0; x57>=0; x58>=0; x59>=0; x60>=0; x61>=0; x62>=0; x63>=0; x64>=0; x65>=0; x66>=0; x67>=0; x68>=0; x69>=0; x70>=0; x71>=0; x72>=0; x73>=0; x74>=0; x75>=0; x76>=0; x77>=0; x78>=0; x79>=0; x80>=0; x81>=0; x82>=0; x83>=0; x84>=0; x85>=0; x86>=0; x87>=0; x88>=0; x89>=0; x90>=0; x91>=0; x92>=0; x93>=0; x94>=0; x95>=0; x96>=0; x97>=0; x98>=0; x99>=0; x100>=0; x101>=0; x102>=0; x103>=0; x104>=0; x105>=0; x106>=0; x107>=0; x108>=0; x109>=0; x110>=0; x111>=0; x112>=0; x113>=0; 
//Make all variable type integers :
int x0, x1, x2, x3, x4, x5, x6, x7, x8, x9, x10, x11, x12, x13, x14, x15, x16, x17, x18, x19, x20, x21, x22, x23, x24, x25, x26, x27, x28, x29, x30, x31, x32, x33, x34, x35, x36, x37, x38, x39, x40, x41, x42, x43, x44, x45, x46, x47, x48, x49, x50, x51, x52, x53, x54, x55, x56, x57, x58, x59, x60, x61, x62, x63, x64, x65, x66, x67, x68, x69, x70, x71, x72, x73, x74, x75, x76, x77, x78, x79, x80, x81, x82, x83, x84, x85, x86, x87, x88, x89, x90, x91, x92, x93, x94, x95, x96, x97, x98, x99, x100, x101, x102, x103, x104, x105, x106, x107, x108, x109, x110, x111, x112, x113;
